22213.7,58.8,64.75
22313.44,58.54,64.46
22531.59,57.97,63.84
21567.7,60.56,66.69
23271.34,56.13,61.81
21521.33,60.69,66.84
22987.75,56.82,62.57
23407.69,55.8,61.45
20960.08,62.32,68.63
22249.17,58.71,64.65
20484.75,63.76,70.22
24581.42,53.14,58.52
22391.95,58.33,64.24
26957.55,48.45,53.36
25493.72,51.24,56.42
23756.61,54.98,60.55
25303.51,51.62,56.85
26376.77,49.52,54.53
24005.47,54.41,59.92
20248.03,64.51,71.04
